500
500
399
399
399
397
396
395
395
395
395
394
393
392
392
391
390
389
388
388
386
386
386
385
385
385
384
384
384
383
383
382
382
382
380
379
379
379
378
377
377
377
376
376
376
376
375
374
374
374
373
373
373
373
372
372
370
369
368
367
367
367
367
365
363
361
361
361
361
361
361
361
360
359
359
358
356
355
355
355
354
353
353
352
351
351
351
351
351
351
350
350
349
349
349
349
348
348
347
347
346
345
345
345
345
344
344
344
344
343
343
342
341
341
341
340
339
338
338
337
337
336
336
336
336
335
335
335
334
334
333
332
331
330
330
330
330
330
328
327
327
326
326
323
322
322
322
322
322
322
320
320
319
318
315
315
315
314
314
314
314
313
311
310
310
310
310
310
309
309
308
308
308
307
307
307
306
303
301
299
299
299
298
298
298
297
297
297
296
296
296
295
295
294
293
293
293
292
292
291
288
288
288
288
287
286
285
285
285
284
283
283
283
283
282
282
282
280
280
279
279
279
279
278
278
278
277
276
276
275
275
274
274
271
271
271
271
271
270
270
270
270
268
268
267
267
265
264
264
263
263
262
260
260
260
259
259
258
257
256
256
255
255
254
253
253
252
252
251
251
251
250
250
250
248
248
247
247
247
246
246
246
246
244
244
243
242
242
240
239
239
238
234
233
232
232
227
226
226
226
225
225
225
223
223
222
222
222
219
219
218
217
217
216
216
215
215
215
215
213
212
211
211
211
210
208
207
205
203
202
202
202
202
201
201
201
200
200
200
200
199
198
198
197
197
197
196
195
195
195
194
194
193
192
190
190
188
187
187
186
185
185
184
183
183
182
182
181
181
181
179
178
177
176
176
175
175
175
173
172
170
170
169
169
168
167
167
167
166
163
162
161
160
159
159
159
159
158
157
157
157
156
156
154
154
152
152
151
151
150
150
149
148
148
147
146
146
144
143
142
141
141
140
139
139
137
137
136
136
135
135
135
134
133
133
131
131
131
130
129
129
129
128
127
127
126
126
125
125
125
125
124
124
124
122
122
122
122
121
121
120
120
120
119
119
118
117
117
116
116
115
115
115
114
114
114
114
113
113
112
111
110
109
109
109
108
107
107
106
105
105
105
104
102
102
102
102
101
101
100
100
100
